c ---- [ banner ] ------------------------------------------------------------
c
c Kissat SAT Solver
c 
c Copyright (c) 2021-2024 Armin Biere University of Freiburg
c Copyright (c) 2019-2021 Armin Biere Johannes Kepler University Linz
c 
c Version 4.0.1 43f02cf3e992cb44653b35e5cb26f93281552ae0
c gcc (Ubuntu 13.2.0-23ubuntu4) 13.2.0 -W -Wall -O3 -DNDEBUG
c Thu Sep 12 12:27:46 CEST 2024 Linux abryzen9 6.8.0-41-generic x86_64
c
c ---- [ parsing ] -----------------------------------------------------------
c
c opened and reading DIMACS file:
c
c   /data/artifact/AMulet2.0_artifact/exp4/cnf_dc2_64/64_64_U1_DT_KS_Multgen_dc2.cnf
c
c parsed 'p cnf 29344 129078' header
c closing input after reading 2580476 bytes (2 MB)
c finished parsing after 0.02 seconds
c
c ---- [ options ] -----------------------------------------------------------
c
c --stable=0                       (different from default '1')
c
c ---- [ solving ] -----------------------------------------------------------
c
c  seconds switched rate     size/glue tier1  binary           remaining
c         MB reductions conflicts size  tier2     irredundant
c          level restarts redundant glue  trail           variables
c
c *  0.02 10 0 0 0  0 0   0   0 0.0 0 0 0 0 0% 11923 117153 29341 100%
c (  0.03 12 0 0 0  0 0   0   0 0.0 0 0 0 0 0% 11923 117153 29341 100%
c .  0.04 13 0 0 0  0 0   0   0 0.0 0 0 0 0 0% 11919 117153 29341 100%
c c  0.10 17 0 0 0  0 0   0   0 0.0 0 0 0 0 0% 18461 104069 26070 89%
c d  0.10 18 0 0 0  0 0   0   0 0.0 0 0 0 0 0% 11919 104069 26070 89%
c =  0.14 18 0 0 0  0 0   0   0 0.0 0 0 0 0 0% 12443 104067 25808 88%
c d  0.15 18 0 0 0  0 0   0   0 0.0 0 0 0 0 0% 11919 104067 25808 88%
c f  0.26 17 0 0 0  0 0   0   0 0.0 0 0 0 0 0% 16612 96689 28430 97%
c e  0.44 24 0 0 0  0 0   0   0 0.0 0 0 0 0 0% 10315 104676 19544 67%
c )  0.44 24 0 0 0  0 0   0   0 0.0 0 0 0 0 0% 10315 104676 19544 67%
c {  0.46 24 0 0 0  0 0   0   0 0.0 0 0 2 6 0% 10315 104676 19544 67%
c -  0.66 26 215 0 1 168 37 1000 685 4.7 34 7 4 11 20% 10350 104676 19544 67%
c -  0.89 26 274 0 2 264 34 2003 1290 4.1 28 7 4 11 23% 10385 104676 19544 67%
c c  1.02 23 243 0 2 269 29 2503 1601 3.7 24 7 4 11 24% 10500 104259 19475 66%
c d  1.03 23 243 0 2 269 29 2503 1548 3.7 24 7 4 11 24% 10362 104259 19475 66%
c u  1.05 23 243 0 2 269 29 2503 1191 3.7 24 7 4 11 24% 10370 104259 19475 66%
c v  1.07 23 243 0 2 269 29 2503 1100 3.7 24 7 4 11 24% 10370 104259 19475 66%
c w  1.08 23 243 0 2 269 29 2503 1099 3.7 24 7 4 11 24% 10370 104259 19475 66%
c x  1.10 23 243 0 2 269 29 2503 1099 3.7 24 7 4 11 24% 10370 104112 19475 66%
c =  1.17 23 243 0 2 269 29 2503 1099 3.7 24 7 4 11 24% 10648 104112 19336 66%
c
c  seconds   switched   rate       size/glue tier1     binary           remaining
c         MB  reductions conflicts       size  tier2       irredundant
c           level restarts    redundant    glue    trail           variables
c
c d  1.18 23 243 0 2 269 29 2503 1073 3.7 24 7 4 11 24% 10365 104112 19335 66%
c f  1.21 23 243 0 2 269 29 2503 1073 3.7 24 7 4 11 24% 10916 103008 19887 68%
c u  1.30 23 243 0 2 269 29 2503 1031 3.7 24 7 4 11 24% 10916 103008 19887 68%
c v  1.32 23 243 0 2 269 29 2503 963 3.7 24 7 4 11 24% 10916 103008 19887 68%
c w  1.33 23 243 0 2 269 29 2503 961 3.7 24 7 4 11 24% 10916 103008 19887 68%
c x  1.36 23 243 0 2 269 29 2503 961 3.7 24 7 4 11 24% 10916 102586 19887 68%
c =  1.42 23 243 0 2 269 29 2503 961 3.7 24 7 4 11 24% 11058 102586 19816 68%
c d  1.43 23 243 0 2 269 29 2503 961 3.7 24 7 4 11 24% 10916 102586 19816 68%
c f  1.46 23 243 0 2 269 29 2503 961 3.7 24 7 4 11 24% 10934 102559 19825 68%
c -  1.70 26 225 0 3 380 33 3420 1507 4.0 26 6 3 10 24% 10957 102559 19825 68%
c -  2.53 26 271 0 4 702 41 5152 2600 4.5 38 9 3 11 28% 10999 102559 19825 68%
c -  3.01 26 285 0 5 818 35 7152 3759 4.3 36 8 3 12 30% 11031 102559 19825 68%
c d  3.18 26 273 0 5 879 34 7706 4274 4.2 35 8 3 12 30% 11002 102559 19806 67%
c u  3.22 26 273 0 5 879 34 7706 3684 4.2 35 8 3 12 30% 11019 102559 19806 67%
c v  3.26 26 273 0 5 879 34 7706 3307 4.2 35 8 3 12 30% 11019 102559 19806 67%
c w  3.28 26 273 0 5 879 34 7706 3306 4.2 35 8 3 12 30% 11019 102559 19806 67%
c x  3.31 26 273 0 5 879 34 7706 3306 4.2 35 8 3 12 30% 11019 102360 19806 67%
c =  3.43 26 273 0 5 879 34 7706 3306 4.2 35 8 3 12 30% 12101 102360 19265 66%
c d  3.44 26 273 0 5 879 34 7706 3284 4.2 35 8 3 12 30% 10879 102360 19265 66%
c t  3.47 26 273 0 5 879 34 7706 3284 4.2 35 8 3 12 30% 10877 102360 19265 66%
c
c  seconds   switched   rate       size/glue tier1     binary           remaining
c         MB  reductions conflicts       size  tier2       irredundant
c           level restarts    redundant    glue    trail           variables
c
c f  3.53 26 273 0 5 879 34 7706 3284 4.2 35 8 3 12 30% 11713 101106 19683 67%
c c  3.61 26 273 0 5 879 34 7706 3284 4.2 35 8 3 12 30% 11714 101102 19682 67%
c d  3.61 26 273 0 5 879 34 7706 3284 4.2 35 8 3 12 30% 11712 101102 19682 67%
c u  3.65 26 273 0 5 879 34 7706 3194 4.2 35 8 3 12 30% 11714 101102 19682 67%
c v  3.69 26 273 0 5 879 34 7706 3120 4.2 35 8 3 12 30% 11714 101102 19682 67%
c w  3.73 26 273 0 5 879 34 7706 3111 4.2 35 8 3 12 30% 11714 101102 19682 67%
c x  3.78 26 273 0 5 879 34 7706 3111 4.2 35 8 3 12 30% 11714 99800 19682 67%
c =  3.95 26 273 0 5 879 34 7706 3111 4.2 35 8 3 12 30% 12900 99800 19089 65%
c d  3.96 26 273 0 5 879 34 7706 3073 4.2 35 8 3 12 30% 11542 99800 19089 65%
c t  3.98 26 273 0 5 879 34 7706 3073 4.2 35 8 3 12 30% 11473 99800 19089 65%
c f  4.03 26 273 0 5 879 34 7706 3073 4.2 35 8 3 12 30% 13379 96939 20042 68%
c -  4.45 26 272 0 6 997 33 9388 3909 4.0 33 8 3 12 30% 13411 96939 20042 68%
c o  4.61 26 261 0 6 1028 31 10160 4558 4.0 32 8 3 12 30% 13433 96939 20042 68%
c -  5.07 28 260 0 7 1156 31 11837 5177 4.0 32 8 3 12 30% 13478 96939 20042 68%
c s  5.28 28 279 0 7 1197 31 12508 5801 3.9 32 8 3 12 30% 13484 91436 20042 68%
c e  5.40 28 279 0 7 1197 31 12508 5801 3.9 32 8 3 12 30% 12079 92460 19344 66%
c s  5.40 28 279 0 7 1197 31 12508 5801 3.9 32 8 3 12 30% 12088 91838 19344 66%
c e  5.42 28 279 0 7 1197 31 12508 5801 3.9 32 8 3 12 30% 12071 91854 19339 66%
c ^  5.42 28 279 0 7 1197 31 12508 5801 3.9 32 8 3 12 30% 12071 91854 19339 66%
c -  5.85 28 266 0 8 1299 29 14483 6300 3.8 31 8 3 11 30% 12114 91854 19339 66%
c
c  seconds   switched    rate        size/glue tier1     binary          remaining
c         MB  reductions   conflicts       size  tier2       irredundant
c           level  restarts     redundant    glue    trail          variables
c
c d  6.07 28 264 0 8 1353 28 15785 7472 3.7 30 8 3 11 30% 11712 91852 19099 65%
c u  6.12 28 264 0 8 1353 28 15785 6400 3.7 30 8 3 11 30% 11721 91852 19099 65%
c v  6.16 28 264 0 8 1353 28 15785 6015 3.7 30 8 3 11 30% 11722 91852 19099 65%
c w  6.19 28 264 0 8 1353 28 15785 6010 3.7 30 8 3 11 30% 11722 91852 19099 65%
c x  6.22 28 264 0 8 1353 28 15785 6010 3.7 30 8 3 11 30% 11737 91258 19099 65%
c =  6.40 28 264 0 8 1353 28 15785 6010 3.7 30 8 3 11 30% 12557 91254 18689 64%
c d  6.41 28 264 0 8 1353 28 15785 5995 3.7 30 8 3 11 30% 11522 91254 18684 64%
c t  6.43 28 264 0 8 1353 28 15785 5995 3.7 30 8 3 11 30% 11504 91254 18684 64%
c f  6.47 28 264 0 8 1353 28 15785 5995 3.7 30 8 3 11 30% 11672 90914 18770 64%
c u  6.53 28 264 0 8 1353 28 15785 5857 3.7 30 8 3 11 30% 11673 90914 18770 64%
c v  6.57 28 264 0 8 1353 28 15785 5615 3.7 30 8 3 11 30% 11673 90914 18770 64%
c w  6.62 28 264 0 8 1353 28 15785 5600 3.7 30 8 3 11 30% 11673 90914 18770 64%
c x  6.65 28 264 0 8 1353 28 15785 5600 3.7 30 8 3 11 30% 11673 89698 18770 64%
c =  6.84 28 264 0 8 1353 28 15785 5600 3.7 30 8 3 11 30% 12121 89698 18546 63%
c d  6.85 28 264 0 8 1353 28 15785 5542 3.7 30 8 3 11 30% 11612 89698 18546 63%
c t  6.87 28 264 0 8 1353 28 15785 5542 3.7 30 8 3 11 30% 11610 89698 18546 63%
c -  7.34 29 268 0 9 1482 28 17312 6083 3.7 30 8 3 11 30% 11638 89698 18546 63%
c o  7.98 29 274 0 9 1636 27 20243 8598 3.7 30 8 3 11 30% 11718 89698 18546 63%
c -  8.04 29 274 0 10 1655 27 20312 7384 3.7 30 8 2 11 30% 11718 89698 18546 63%
c -  9.02 29 271 0 11 1972 27 23476 8629 3.9 32 8 2 11 30% 11804 89698 18546 63%
c
c  seconds   switched     rate        size/glue tier1     binary          remaining
c         MB   reductions   conflicts       size  tier2       irredundant
c           level   restarts     redundant    glue    trail          variables
c
c s  9.36 29 266 0 11 2058 27 25008 9947 3.9 31 8 2 11 30% 11841 88214 18546 63%
c e  9.47 29 266 0 11 2058 27 25008 9947 3.9 31 8 2 11 30% 9396 91589 17276 59%
c s  9.47 29 266 0 11 2058 27 25008 9947 3.9 31 8 2 11 30% 9397 91346 17276 59%
c e  9.49 29 266 0 11 2058 27 25008 9947 3.9 31 8 2 11 30% 9387 91342 17268 59%
c ^  9.49 29 266 0 11 2058 27 25008 9947 3.9 31 8 2 11 30% 9387 91342 17268 59%
c -  9.75 29 277 0 12 2144 27 26792 8916 3.9 31 8 2 10 30% 9419 91342 17268 59%
c c  9.85 29 277 0 12 2162 27 26911 9018 3.9 32 8 2 10 30% 9476 91068 17231 59%
c d  9.86 29 277 0 12 2162 27 26911 8956 3.9 32 8 2 10 30% 8991 91068 16988 58%
c u  9.90 29 277 0 12 2162 27 26911 7961 3.9 32 8 2 10 30% 9005 91068 16988 58%
c v  9.95 29 277 0 12 2162 27 26911 6983 3.9 32 8 2 10 30% 9007 91068 16988 58%
c w 10.00 29 277 0 12 2162 27 26911 6979 3.9 32 8 2 10 30% 9007 91068 16988 58%
c x 10.08 29 277 0 12 2162 27 26911 6978 3.9 32 8 2 10 30% 9007 90516 16988 58%
c = 10.36 29 277 0 12 2162 27 26911 6978 3.9 32 8 2 10 30% 12519 90516 15232 52%
c d 10.37 29 277 0 12 2162 27 26911 6713 3.9 32 8 2 10 30% 8885 90516 15232 52%
c t 10.38 29 277 0 12 2162 27 26911 6713 3.9 32 8 2 10 30% 8882 90516 15232 52%
c f 10.45 29 277 0 12 2162 27 26911 6713 3.9 32 8 2 10 30% 8893 90464 15243 52%
c u 10.51 29 277 0 12 2162 27 26911 6245 3.9 32 8 2 10 30% 8893 90464 15243 52%
c v 10.54 29 277 0 12 2162 27 26911 6124 3.9 32 8 2 10 30% 8894 90464 15243 52%
c w 10.59 29 277 0 12 2162 27 26911 6122 3.9 32 8 2 10 30% 8894 90464 15243 52%
c x 10.69 29 277 0 12 2162 27 26911 6122 3.9 32 8 2 10 30% 8894 83209 15243 52%
c
c  seconds   switched     rate        size/glue tier1     binary          remaining
c         MB   reductions   conflicts       size  tier2       irredundant
c           level   restarts     redundant    glue    trail          variables
c
c = 10.97 29 277 0 12 2162 27 26911 6122 3.9 32 8 2 10 30% 12086 83157 13642 46%
c d 10.97 29 277 0 12 2162 27 26911 6072 3.9 32 8 2 10 30% 8864 83157 13642 46%
c f 11.04 29 277 0 12 2162 27 26911 6072 3.9 32 8 2 10 30% 8866 83152 13643 46%
c - 11.63 29 275 0 13 2378 27 30256 8033 3.8 30 8 2 10 29% 8877 83152 13643 46%
c - 11.97 29 276 0 14 2622 26 33862 9951 3.7 29 8 2 9 28% 8907 83152 13643 46%
c - 12.45 29 268 0 15 2915 25 37606 11577 3.7 29 8 2 9 28% 8931 83149 13643 46%
c o 12.88 29 260 0 15 3166 25 40733 14274 3.6 28 8 2 9 28% 8963 83148 13643 46%
c c 13.01 29 259 0 15 3232 25 41240 14731 3.6 28 8 2 9 28% 8984 82929 13603 46%
c d 13.02 29 259 0 15 3232 25 41240 14473 3.6 28 8 2 9 28% 8904 82929 13603 46%
c u 13.07 29 259 0 15 3232 25 41240 12227 3.6 28 8 2 9 28% 8925 82929 13603 46%
c v 13.11 29 259 0 15 3232 25 41240 11472 3.6 28 8 2 9 28% 8926 82929 13603 46%
c w 13.15 29 259 0 15 3232 25 41240 11472 3.6 28 8 2 9 28% 8926 82929 13603 46%
c x 13.19 29 259 0 15 3232 25 41240 11472 3.6 28 8 2 9 28% 8931 74905 13603 46%
c d 13.34 29 259 0 15 3232 25 41240 11396 3.6 28 8 2 9 28% 8909 74905 13592 46%
c t 13.35 29 259 0 15 3232 25 41240 11396 3.6 28 8 2 9 28% 8907 74905 13592 46%
c f 13.35 29 259 0 15 3232 25 41240 11396 3.6 28 8 2 9 28% 8911 74891 13594 46%
c c 13.39 29 259 0 15 3232 25 41240 11263 3.6 28 8 2 9 28% 8925 74827 13587 46%
c d 13.40 29 259 0 15 3232 25 41240 11263 3.6 28 8 2 9 28% 8911 74827 13587 46%
c u 13.42 29 259 0 15 3232 25 41240 10891 3.6 28 8 2 9 28% 8915 74827 13587 46%
c v 13.46 29 259 0 15 3232 25 41240 10141 3.6 28 8 2 9 28% 8917 74827 13587 46%
c
c  seconds   switched     rate         size/glue tier1    binary         remaining
c         MB   reductions   conflicts        size  tier2     irredundant
c           level   restarts      redundant    glue   trail         variables
c
c w 13.49 29 259 0 15 3232 25 41240 10137 3.6 28 8 2 9 28% 8917 74827 13587 46%
c x 13.53 29 259 0 15 3232 25 41240 10136 3.6 28 8 2 9 28% 8925 73688 13587 46%
c d 13.54 29 259 0 15 3232 25 41240 10136 3.6 28 8 2 9 28% 8921 73688 13585 46%
c t 13.55 29 259 0 15 3232 25 41240 10136 3.6 28 8 2 9 28% 8918 73688 13585 46%
c - 13.59 29 258 0 16 3254 25 41478 9058 3.6 28 8 2 8 28% 8918 73688 13585 46%
c i 13.87 29 253 0 16 3446 25 44296 11576 3.6 28 8 2 8 28% 8951 73687 13584 46%
c - 13.88 29 250 0 17 3448 24 45479 10960 3.6 27 8 2 8 27% 8980 73687 13584 46%
c - 14.25 29 249 0 18 3717 24 49602 12924 3.5 26 8 2 7 27% 9013 73684 13584 46%
c s 14.76 29 248 0 18 3930 24 52111 15163 3.5 27 8 2 7 27% 9029 67819 13584 46%
c e 14.84 29 248 0 18 3930 24 52111 15163 3.5 27 8 2 7 27% 8527 68432 13224 45%
c s 14.84 29 248 0 18 3930 24 52111 15163 3.5 27 8 2 7 27% 8527 68235 13224 45%
c e 14.85 29 248 0 18 3930 24 52111 15163 3.5 27 8 2 7 27% 8516 68238 13219 45%
c ^ 14.85 29 248 0 18 3930 24 52111 15163 3.5 27 8 2 7 27% 8516 68238 13219 45%
c - 15.24 29 247 0 19 4120 24 53845 13466 3.5 26 8 2 7 27% 8532 68238 13219 45%
c - 15.85 29 241 0 20 4426 24 58204 15093 3.4 26 8 2 7 26% 8588 68238 13219 45%
c d 15.96 29 241 0 20 4484 24 58887 15470 3.4 26 8 2 7 26% 8534 68238 13184 45%
c u 16.04 29 241 0 20 4484 24 58887 13195 3.4 26 8 2 7 26% 8555 68238 13184 45%
c v 16.10 29 241 0 20 4484 24 58887 11968 3.4 26 8 2 7 26% 8559 68238 13184 45%
c w 16.15 29 241 0 20 4484 24 58887 11967 3.4 26 8 2 7 26% 8559 68238 13184 45%
c x 16.22 29 241 0 20 4484 24 58887 11963 3.4 26 8 2 7 26% 8561 67477 13184 45%
c
c  seconds   switched     rate         size/glue tier1    binary         remaining
c         MB   reductions   conflicts        size  tier2     irredundant
c           level   restarts      redundant    glue   trail         variables
c
c d 16.48 29 241 0 20 4484 24 58887 11943 3.4 26 8 2 7 26% 8537 67477 13172 45%
c t 16.49 29 241 0 20 4484 24 58887 11943 3.4 26 8 2 7 26% 8532 67477 13172 45%
c f 16.51 29 241 0 20 4484 24 58887 11943 3.4 26 8 2 7 26% 8544 67434 13177 45%
c c 16.56 29 241 0 20 4484 24 58887 11845 3.4 26 8 2 7 26% 8581 67262 13158 45%
c d 16.57 29 241 0 20 4484 24 58887 11845 3.4 26 8 2 7 26% 8543 67262 13158 45%
c u 16.62 29 241 0 20 4484 24 58887 11363 3.4 26 8 2 7 26% 8549 67262 13158 45%
c v 16.67 29 241 0 20 4484 24 58887 11022 3.4 26 8 2 7 26% 8550 67262 13158 45%
c w 16.72 29 241 0 20 4484 24 58887 10994 3.4 26 8 2 7 26% 8550 67262 13158 45%
c x 16.81 29 241 0 20 4484 24 58887 10994 3.4 26 8 2 7 26% 8550 67141 13158 45%
c d 16.82 29 241 0 20 4484 24 58887 10993 3.4 26 8 2 7 26% 8544 67141 13155 45%
c - 17.34 29 234 0 21 4732 23 62676 12644 3.4 25 8 2 7 26% 8573 67141 13155 45%
c - 17.82 29 229 0 22 5077 23 67261 14811 3.4 25 8 2 7 26% 8645 67141 13155 45%
c o 18.20 29 229 0 22 5367 23 70737 17759 3.3 25 8 2 7 26% 8692 67141 13155 45%
c - 18.30 29 228 0 23 5444 23 71952 16609 3.3 25 8 2 7 25% 8705 67141 13155 45%
c - 18.75 29 218 0 24 5771 22 76750 18266 3.3 25 8 2 6 25% 8782 67141 13155 45%
c c 19.17 29 214 0 24 6078 22 79993 20937 3.3 26 8 2 6 25% 8943 66099 12965 44%
c d 19.18 29 214 0 24 6078 22 79993 19694 3.3 26 8 2 6 25% 8563 66099 12965 44%
c u 19.23 29 214 0 24 6078 22 79993 16535 3.3 26 8 2 6 25% 8610 66099 12965 44%
c v 19.27 29 214 0 24 6078 22 79993 14528 3.3 26 8 2 6 25% 8624 66099 12965 44%
c w 19.38 29 214 0 24 6078 22 79993 14514 3.3 26 8 2 6 25% 8624 66099 12965 44%
c
c  seconds   switched     rate         size/glue tier1    binary         remaining
c         MB   reductions   conflicts        size  tier2     irredundant
c           level   restarts      redundant    glue   trail         variables
c
c d 19.39 29 214 0 24 6078 22 79993 14454 3.3 26 8 2 6 25% 8568 66099 12937 44%
c t 19.40 29 214 0 24 6078 22 79993 14454 3.3 26 8 2 6 25% 8559 66099 12937 44%
c c 19.43 29 214 0 24 6078 22 79993 14454 3.3 26 8 2 6 25% 8579 65977 12924 44%
c d 19.44 29 214 0 24 6078 22 79993 14409 3.3 26 8 2 6 25% 8553 65977 12924 44%
c u 19.48 29 214 0 24 6078 22 79993 13408 3.3 26 8 2 6 25% 8559 65977 12924 44%
c v 19.51 29 214 0 24 6078 22 79993 12831 3.3 26 8 2 6 25% 8564 65977 12924 44%
c w 19.58 29 214 0 24 6078 22 79993 12765 3.3 26 8 2 6 25% 8564 65977 12924 44%
c x 19.63 29 214 0 24 6078 22 79993 12764 3.3 26 8 2 6 25% 8566 65841 12924 44%
c = 19.85 29 214 0 24 6078 22 79993 12764 3.3 26 8 2 6 25% 8686 65841 12864 44%
c d 19.85 29 214 0 24 6078 22 79993 12709 3.3 26 8 2 6 25% 8535 65841 12861 44%
c - 20.21 29 214 0 25 6227 22 81649 12690 3.4 26 8 2 6 25% 8545 65841 12861 44%
c - 20.66 29 213 0 26 6584 22 86650 15399 3.4 26 8 2 6 25% 8590 65841 12861 44%
c i 21.56 29 209 0 26 7159 22 90891 19357 3.4 26 8 2 6 26% 8620 65841 12860 44%
c - 21.69 29 209 0 27 7283 22 91750 16492 3.4 26 8 1 6 26% 8623 65841 12860 44%
c i 22.12 29 208 0 27 7631 22 95747 19915 3.4 26 8 1 6 25% 8694 65841 12859 44%
c i 22.12 29 208 0 27 7631 22 95754 19918 3.4 26 8 1 6 25% 8695 65841 12858 44%
c i 22.12 29 208 0 27 7631 22 95755 19918 3.4 26 8 1 6 25% 8695 65841 12857 44%
c s 22.13 29 208 0 27 7637 22 95865 20024 3.4 26 8 1 6 25% 8695 65413 12857 44%
c e 22.20 29 208 0 27 7637 22 95865 20024 3.4 26 8 1 6 25% 5720 72467 11331 39%
c 2 22.20 29 208 0 27 7637 22 95865 20024 3.4 26 8 1 6 25% 5718 72467 11331 39%
c
c  seconds   switched     rate         size/glue tier1    binary         remaining
c         MB   reductions   conflicts        size  tier2     irredundant
c           level   restarts      redundant    glue   trail         variables
c
c s 22.21 29 208 0 27 7637 22 95865 20024 3.4 26 8 1 6 25% 5721 72079 11331 39%
c e 22.22 29 208 0 27 7637 22 95865 20024 3.4 26 8 1 6 25% 5714 72132 11307 39%
c ^ 22.22 29 208 0 27 7637 22 95865 20024 3.4 26 8 1 6 25% 5714 72132 11307 39%
c i 22.42 29 207 0 27 7815 22 96926 15359 3.4 26 8 1 6 26% 5721 72132 11306 39%
c - 22.43 29 207 0 28 7815 22 96946 13223 3.4 26 8 1 6 26% 5728 72122 11306 39%
c i 22.59 29 206 0 28 7942 22 98047 14173 3.3 26 8 1 6 26% 5741 72122 11305 39%
c i 22.59 29 207 0 28 7942 22 98292 14323 3.3 26 8 1 6 26% 5746 72120 11304 39%
c i 22.59 29 207 0 28 7942 22 98372 14360 3.3 26 8 1 6 26% 5750 72120 11300 39%
c i 22.60 29 206 0 28 7948 22 98526 14507 3.3 26 8 1 6 26% 5752 72120 11299 39%
c i 22.83 29 205 0 28 8115 22 100326 16096 3.3 26 8 1 6 26% 5768 72120 11298 39%
c - 23.30 29 203 0 29 8407 22 102237 14810 3.3 26 8 1 6 26% 5753 72120 11298 39%
c i 23.42 29 203 0 29 8474 22 102701 15243 3.3 26 8 1 6 26% 5760 72120 11296 38%
c i 23.72 29 201 0 29 8633 22 104168 16585 3.3 26 8 1 6 26% 5771 72120 11295 38%
c c 23.90 29 201 0 29 8718 22 104668 17053 3.3 26 8 1 6 26% 5806 71551 11236 38%
c d 23.91 29 201 0 29 8718 22 104668 16762 3.3 26 8 1 6 26% 5709 71535 11236 38%
c d 23.91 29 201 0 29 8718 22 104668 16754 3.3 26 8 1 6 26% 5691 71535 11227 38%
c u 23.93 29 201 0 29 8718 22 104668 14928 3.3 26 8 1 6 26% 5719 71535 11226 38%
c v 23.99 29 201 0 29 8718 22 104668 12365 3.3 26 8 1 6 26% 5726 71535 11225 38%
c w 24.16 29 201 0 29 8718 22 104668 12195 3.3 26 8 1 6 26% 5726 71535 11225 38%
c d 24.17 29 201 0 29 8718 22 104668 12174 3.3 26 8 1 6 26% 5714 71515 11218 38%
c
c  seconds   switched     rate          size/glue tier1    binary         remaining
c         MB   reductions   conflicts         size  tier2     irredundant
c           level   restarts       redundant    glue   trail         variables
c
c d 24.17 29 201 0 29 8718 22 104668 12168 3.3 26 8 1 6 26% 5712 71515 11217 38%
c t 24.18 29 201 0 29 8718 22 104668 12168 3.3 26 8 1 6 26% 5703 71515 11217 38%
c f 24.24 29 201 0 29 8718 22 104668 12168 3.3 26 8 1 6 26% 5711 71467 11221 38%
c c 24.28 29 201 0 29 8718 22 104668 12165 3.3 26 8 1 6 26% 5697 71451 11215 38%
c d 24.29 29 201 0 29 8718 22 104668 12165 3.3 26 8 1 6 26% 5693 71451 11215 38%
c u 24.33 29 201 0 29 8718 22 104668 11765 3.3 26 8 1 6 26% 5704 71451 11213 38%
c v 24.36 29 201 0 29 8718 22 104668 11261 3.3 26 8 1 6 26% 5707 71451 11213 38%
c w 24.48 29 201 0 29 8718 22 104668 11171 3.3 26 8 1 6 26% 5707 71451 11213 38%
c = 24.71 29 201 0 29 8718 22 104668 11171 3.3 26 8 1 6 26% 5847 71420 11143 38%
c d 24.71 29 201 0 29 8718 22 104668 11103 3.3 26 8 1 6 26% 5673 71420 11142 38%
c t 24.73 29 201 0 29 8718 22 104668 11103 3.3 26 8 1 6 26% 5670 71420 11142 38%
c i 24.74 29 201 0 29 8718 22 104668 11103 3.3 26 8 1 6 26% 5670 71420 11142 38%
c i 24.76 29 201 0 29 8728 22 104993 11324 3.3 26 8 1 6 26% 5677 71420 11141 38%
c - 24.91 29 197 0 30 8812 22 107629 11539 3.3 26 8 1 6 26% 5695 71419 11141 38%
c i 24.91 29 196 0 30 8812 22 108028 11781 3.2 26 8 1 6 26% 5716 71419 11140 38%
c i 25.02 29 194 0 30 8916 22 109031 12669 3.2 25 8 1 6 26% 5724 71419 11139 38%
c i 25.05 29 194 0 30 8939 22 109405 13000 3.2 25 8 1 6 26% 5726 71419 11138 38%
c i 25.09 29 193 0 30 8962 22 109975 13519 3.2 25 8 1 6 26% 5733 71419 11137 38%
c i 25.16 29 193 0 30 9020 22 110533 14007 3.2 25 8 1 6 26% 5741 71419 11136 38%
c o 25.18 29 193 0 30 9026 22 110748 14192 3.2 25 8 1 6 26% 5743 71419 11136 38%
c
c  seconds   switched     rate          size/glue tier1    binary         remaining
c         MB   reductions   conflicts         size  tier2     irredundant
c           level   restarts       redundant    glue   trail         variables
c
c i 25.25 29 192 0 30 9095 22 111338 14752 3.2 25 8 1 6 26% 5744 71419 11135 38%
c i 25.27 29 191 0 30 9104 21 111845 15136 3.2 25 8 1 6 26% 5759 71419 11134 38%
c i 25.34 29 190 0 30 9169 21 112245 15500 3.2 25 8 1 6 26% 5764 71419 11133 38%
c - 25.44 29 189 0 31 9275 21 113106 13520 3.2 25 8 1 6 26% 5741 71419 11133 38%
c i 25.54 29 188 0 31 9361 21 114512 14744 3.2 25 8 1 6 26% 5749 71419 11132 38%
c i 25.58 29 187 0 31 9398 21 115247 15402 3.2 25 8 1 6 26% 5754 71419 11131 38%
c i 25.63 29 186 0 31 9446 21 115935 16026 3.1 25 8 1 6 26% 5762 71419 11130 38%
c i 25.66 29 185 0 31 9470 21 116329 16344 3.1 25 8 1 6 26% 5771 71419 11129 38%
c i 25.67 29 185 0 31 9475 21 116546 16522 3.1 25 8 1 6 26% 5773 71419 11128 38%
c i 25.68 29 185 0 31 9497 21 116707 16646 3.1 25 8 1 6 26% 5780 71417 11127 38%
c i 25.76 29 184 0 31 9563 21 117626 17488 3.1 25 8 1 6 26% 5787 71417 11126 38%
c i 25.77 29 183 0 31 9586 21 117849 17677 3.1 25 8 1 6 26% 5792 71417 11124 38%
c i 25.80 29 183 0 31 9636 21 118347 18101 3.1 24 8 1 6 26% 5798 71417 11123 38%
c - 25.81 29 182 0 32 9663 21 118673 14802 3.1 24 8 1 6 26% 5770 71417 11123 38%
c i 25.85 29 181 0 32 9732 21 119713 15627 3.1 24 8 1 6 26% 5779 71417 11122 38%
c i 25.89 29 178 0 32 9820 20 121027 16692 3.1 24 8 1 6 25% 5804 71417 11121 38%
c i 25.90 29 177 0 32 9829 20 121868 17351 3.1 24 8 1 6 25% 5814 71417 11120 38%
c i 25.93 29 174 0 32 9873 20 123276 18508 3.1 24 8 1 6 25% 5823 71417 11119 38%
c - 25.94 29 172 0 33 9876 20 124329 15607 3.1 24 8 1 6 24% 5815 71417 11119 38%
c i 25.94 29 172 0 33 9876 20 124438 15660 3.1 24 8 1 6 24% 5820 71417 11118 38%
c
c  seconds   switched     rate          size/glue tier1    binary         remaining
c         MB   reductions   conflicts         size  tier2     irredundant
c           level   restarts       redundant    glue   trail         variables
c
c i 25.95 29 172 0 33 9877 20 124544 15720 3.1 24 8 1 6 24% 5826 71415 11114 38%
c i 25.95 29 172 0 33 9877 20 124553 15721 3.1 24 8 1 6 24% 5829 71415 11111 38%
c i 25.95 29 172 0 33 9877 20 124565 15723 3.1 24 8 1 6 24% 5833 71415 11110 38%
c i 25.95 29 172 0 33 9877 20 124582 15728 3.1 24 8 1 6 24% 5837 71415 11107 38%
c } 25.95 29 172 0 33 9877 20 124589 15729 3.1 24 8 1 6 24% 5840 71415 11087 38%
c 0 25.95 29 172 0 33 9877 20 124589 15729 3.1 24 8 1 6 24% 5840 71415 11087 38%
c
c ---- [ result ] ------------------------------------------------------------
c
s UNSATISFIABLE
c
c ---- [ profiling ] ---------------------------------------------------------
c
c          18.40   70.92 %  search
c          18.40   70.92 %  focused
c           7.09   27.31 %  simplify
c           6.78   26.13 %  probe
c           2.74   10.57 %  vivify
c           2.22    8.54 %  sweep
c           0.63    2.42 %  factor
c           0.57    2.18 %  congruence
c           0.53    2.03 %  eliminate
c           0.45    1.72 %  substitute
c           0.40    1.55 %  preprocess
c           0.18    0.68 %  fastel
c           0.16    0.61 %  reduce
c           0.12    0.47 %  transitive
c           0.09    0.35 %  subsume
c           0.06    0.22 %  backbone
c           0.03    0.13 %  lucky
c           0.02    0.08 %  parse
c =============================================
c          25.95  100.00 %  total
c
c ---- [ statistics ] --------------------------------------------------------
c
c chronological:                         4389                4 %  conflicts
c conflicts:                           124589             4801.15 per second
c congruent:                             3708               13 %  variables
c decisions:                          2462922               19.77 per conflict
c eliminated:                           12781               44 %  variables
c factored:                              4663               16 %  variables
c fast_eliminated:                       8886               70 %  eliminated
c fast_strengthened:                       28                5 %  per strengthened
c fast_subsumed:                           78                1 %  per subsumed
c iterations:                              41                0 %  variables
c propagations:                     104781193          4037835    per second
c reductions:                              33             3775    interval
c reordered:                                5            24918    interval
c restarts:                              9877               13    interval
c strengthened:                           534                0 %  checks
c substituted:                          10050               34 %  variables
c subsumed:                             14759                1 %  checks
c switched:                                 0                0    interval
c vivified:                             58534               13 %  checks
c
c ---- [ glue usage ] --------------------------------------------------------
c
c focused glue 1   used 154696 clauses 51.48% accumulated 51.48% tier1
c focused glue 2   used  66349 clauses 22.08% accumulated 73.56%
c focused glue 3-4 used  36963 clauses 12.30% accumulated 85.86%
c focused glue 5   used   8915 clauses  2.97% accumulated 88.83%
c focused glue 6   used   6896 clauses  2.29% accumulated 91.12% tier2
c
c ---- [ resources ] ---------------------------------------------------------
c
c maximum-resident-set-size:         30007296 bytes         29 MB
c process-time:                            26s              25.95 seconds
c
c ---- [ shutting down ] -----------------------------------------------------
c
c exit 20
